2196
[0, 44, 43, 42, 69, 41, 38, 36, 37, 63, 40, 68, 62, 48, 51, 50, 67, 49, 47, 39, 35, 34, 60, 33, 32, 26, 64, 28, 24, 29, 30, 31, 65, 1, 2, 45, 53, 52, 46, 54, 55, 56, 70, 3, 4, 8, 13, 17, 18, 22, 23, 20, 21, 66, 14, 12, 15, 19, 16, 25, 27, 6, 7, 9, 11, 10, 58, 61, 57, 59, 5, 0]
